Route 1: 0 1 18 84 36 83 81 5 0
Route 2: 0 41 97 100 44 70 11 67 59 66 0
Route 3: 0 43 50 28 71 91 13 0
Route 4: 0 72 47 88 8 2 19 48 40 33 0
Route 5: 0 30 38 78 86 6 54 3 20 0
Route 6: 0 37 90 23 46 74 9 22 12 26 73 0
Route 7: 0 39 82 96 75 63 35 80 95 58 17 51 85 0
Route 8: 0 45 87 14 29 65 24 79 25 57 55 98 89 0
Route 9: 0 27 68 92 34 49 99 61 0
Route 10: 0 15 16 42 31 60 76 10 32 52 94 93 64 0
Route 11: 0 53 4 62 77 56 7 69 21 0
